unsat
(:cnf-encoding-aux-vars 114
 :elim-unconstrained    3
 :max-memory            19.75
 :memory                19.01
 :nlsat-arith-var       18
 :nlsat-atoms           220
 :nlsat-bool-var        131
 :nlsat-clauses         612
 :nlsat-conflicts       56
 :nlsat-decisions       806
 :nlsat-propagations    966
 :num-allocs            686401
 :rlimit-count          111293
 :solve-eqs-elim-vars   91
 :solve-eqs-steps       327
 :time                  0.07
 :total-time            0.08)
